sat
(
  (define-fun StorageProv2 () Int
    8001)
  (define-fun ProcProv2 () Int
    0)
  (define-fun PriceProv2 () Int
    0)
  (define-fun C4_VM1 () Int
    0)
  (define-fun C5_VM4 () Int
    1)
  (define-fun C1_VM3 () Int
    0)
  (define-fun MemProv4 () Int
    7500)
  (define-fun StorageProv3 () Int
    2000)
  (define-fun MemProv2 () Int
    244001)
  (define-fun MemProv5 () Int
    7000)
  (define-fun C5_VM1 () Int
    0)
  (define-fun C3_VM5 () Int
    1)
  (define-fun VM4Type () Int
    26)
  (define-fun VM2Type () Int
    0)
  (define-fun ProcProv6 () Int
    8)
  (define-fun MemProv6 () Int
    68400)
  (define-fun StorageProv5 () Int
    4000)
  (define-fun StorageProv1 () Int
    2000)
  (define-fun C4_VM5 () Int
    0)
  (define-fun StorageProv4 () Int
    2000)
  (define-fun C2_VM4 () Int
    1)
  (define-fun C1_VM5 () Int
    0)
  (define-fun PriceProv4 () Int
    252)
  (define-fun C2_VM2 () Int
    0)
  (define-fun PriceProv1 () Int
    252)
  (define-fun ProcProv1 () Int
    4)
  (define-fun PriceProv6 () Int
    1288)
  (define-fun C5_VM6 () Int
    0)
  (define-fun VM3Type () Int
    26)
  (define-fun C4_VM2 () Int
    0)
  (define-fun C2_VM1 () Int
    0)
  (define-fun C3_VM1 () Int
    0)
  (define-fun C1_VM4 () Int
    0)
  (define-fun C3_VM3 () Int
    0)
  (define-fun VM5Type () Int
    21)
  (define-fun C3_VM2 () Int
    0)
  (define-fun C1_VM2 () Int
    0)
  (define-fun C2_VM6 () Int
    0)
  (define-fun MemProv3 () Int
    7500)
  (define-fun ProcProv4 () Int
    4)
  (define-fun C5_VM2 () Int
    0)
  (define-fun C4_VM3 () Int
    0)
  (define-fun ProcProv3 () Int
    4)
  (define-fun C3_VM6 () Int
    0)
  (define-fun C5_VM3 () Int
    1)
  (define-fun PriceProv3 () Int
    252)
  (define-fun PriceProv5 () Int
    632)
  (define-fun C3_VM4 () Int
    0)
  (define-fun C5_VM5 () Int
    1)
  (define-fun C1_VM6 () Int
    0)
  (define-fun MemProv1 () Int
    7500)
  (define-fun VM6Type () Int
    22)
  (define-fun StorageProv6 () Int
    2000)
  (define-fun C4_VM6 () Int
    1)
  (define-fun ProcProv5 () Int
    8)
  (define-fun C2_VM3 () Int
    1)
  (define-fun C2_VM5 () Int
    0)
  (define-fun VM1Type () Int
    26)
  (define-fun C4_VM4 () Int
    0)
  (define-fun C1_VM1 () Int
    1)
)
(objectives
 ( 17)
 ((+ 0 PriceProv1 PriceProv2 PriceProv3 PriceProv4 PriceProv5 PriceProv6) 2676)
)
(:added-eqs                   112365
 :arith-eq-adapter            17554
 :arith-bound-propagations-lp 626
 :arith-conflicts             21
 :arith-diseq                 79515
 :arith-fixed-eqs             2783
 :arith-lower                 65756
 :arith-make-feasible         14636
 :arith-max-columns           147
 :arith-max-rows              20
 :arith-upper                 118234
 :binary-propagations         482532
 :conflicts                   1887
 :decisions                   46271
 :del-clause                  14797
 :final-checks                33
 :max-memory                  44.36
 :maxsat-cores                3
 :memory                      44.36
 :minimized-lits              19271
 :mk-bool-var                 34690
 :mk-clause                   16360
 :mk-clause-binary            4395
 :num-allocs                  41925380
 :num-checks                  38
 :pb-conflicts                1347
 :pb-predicates               474
 :pb-propagations             2190
 :pb-resolves                 1346
 :propagations                658598
 :restarts                    14
 :rlimit-count                4456648
 :solve-eqs-elim-vars         1
 :solve-eqs-steps             10
 :time                        0.25
 :total-time                  0.25)
